(set-info :source |printed by MathSAT|)
(declare-fun |!{$(in_main#0)<SIZE>}| () Int)
(declare-fun |!{$(in_main#0)<SIZE>}.next| () Int)
(declare-fun |!{$(in_main#0)<i>}| () Int)
(declare-fun |!{$(in_main#0)<i>}.next| () Int)
(declare-fun |!{$(in_main#0)<x>}| () Int)
(declare-fun |!{$(in_main#0)<x>}.next| () Int)
(declare-fun |!{$(in_main#0)<a.1>}| () (Array Int Int))
(declare-fun |!{$(in_main#0)<a.1>}.next| () (Array Int Int))
(declare-fun |!{$(in_main#0)<b.2>}| () (Array Int Int))
(declare-fun |!{$(in_main#0)<b.2>}.next| () (Array Int Int))
(declare-fun |!{$(in_main#0)<c.3>}| () (Array Int Int))
(declare-fun |!{$(in_main#0)<c.3>}.next| () (Array Int Int))
(declare-fun |!{$(in_main#0)<$(in___VERIFIER_nondet_int#0)<h#<__VERIFIER_nondet_int.return>>>}| () Int)
(declare-fun |!{$(in_main#0)<$(in___VERIFIER_nondet_int#1)<h#<__VERIFIER_nondet_int.return>>>}| () Int)
(declare-fun |!{$(in_main#0)<$(in___VERIFIER_nondet_int#2)<h#<__VERIFIER_nondet_int.return>>>}| () Int)
(declare-fun !pc () Int)
(declare-fun !pc.next () Int)
(declare-fun |%{$(in_main#0)<x>}#1| () Int)
(declare-fun |%{$(in_main#0)<a.1>}#1| () (Array Int Int))
(declare-fun |%{$(in_main#0)<b.2>}#1| () (Array Int Int))
(declare-fun |%{$(in_main#0)<c.3>}#1| () (Array Int Int))
(define-fun .def_36 () Int (! !pc :next !pc.next))
(define-fun .def_39 () Bool (! (= .def_36 2) :init true))
(define-fun .def_178 () Bool (= .def_36 29))
(define-fun .def_157 () Bool (= !pc.next 57))
(define-fun .def_181 () Bool (and .def_157 .def_178))
(define-fun .def_8 () Int (! |!{$(in_main#0)<SIZE>}| :next |!{$(in_main#0)<SIZE>}.next|))
(define-fun .def_85 () Bool (= .def_8 |!{$(in_main#0)<SIZE>}.next|))
(define-fun .def_53 () Bool (= |!{$(in_main#0)<i>}.next| 0))
(define-fun .def_172 () Bool (and .def_53 .def_85))
(define-fun .def_12 () Int (! |!{$(in_main#0)<x>}| :next |!{$(in_main#0)<x>}.next|))
(define-fun .def_89 () Bool (= .def_12 |!{$(in_main#0)<x>}.next|))
(define-fun .def_173 () Bool (and .def_89 .def_172))
(define-fun .def_14 () (Array Int Int) (! |!{$(in_main#0)<a.1>}| :next |!{$(in_main#0)<a.1>}.next|))
(define-fun .def_91 () Bool (= .def_14 |!{$(in_main#0)<a.1>}.next|))
(define-fun .def_174 () Bool (and .def_91 .def_173))
(define-fun .def_16 () (Array Int Int) (! |!{$(in_main#0)<b.2>}| :next |!{$(in_main#0)<b.2>}.next|))
(define-fun .def_93 () Bool (= .def_16 |!{$(in_main#0)<b.2>}.next|))
(define-fun .def_175 () Bool (and .def_93 .def_174))
(define-fun .def_18 () (Array Int Int) (! |!{$(in_main#0)<c.3>}| :next |!{$(in_main#0)<c.3>}.next|))
(define-fun .def_95 () Bool (= .def_18 |!{$(in_main#0)<c.3>}.next|))
(define-fun .def_176 () Bool (and .def_95 .def_175))
(define-fun .def_10 () Int (! |!{$(in_main#0)<i>}| :next |!{$(in_main#0)<i>}.next|))
(define-fun .def_131 () Bool (<= .def_8 .def_10))
(define-fun .def_177 () Bool (and .def_131 .def_176))
(define-fun .def_182 () Bool (and .def_177 .def_181))
(define-fun .def_64 () Bool (= !pc.next 29))
(define-fun .def_179 () Bool (and .def_64 .def_178))
(define-fun .def_165 () (Array Int Int) (store .def_16 .def_10 |!{$(in_main#0)<$(in___VERIFIER_nondet_int#2)<h#<__VERIFIER_nondet_int.return>>>}|))
(define-fun .def_168 () Bool (= |!{$(in_main#0)<b.2>}.next| .def_165))
(define-fun .def_164 () (Array Int Int) (store .def_14 .def_10 |!{$(in_main#0)<$(in___VERIFIER_nondet_int#1)<h#<__VERIFIER_nondet_int.return>>>}|))
(define-fun .def_166 () Bool (= |!{$(in_main#0)<a.1>}.next| .def_164))
(define-fun .def_139 () Int (* (- 1) |!{$(in_main#0)<i>}.next|))
(define-fun .def_140 () Int (+ .def_10 .def_139))
(define-fun .def_141 () Bool (= .def_140 (- 1)))
(define-fun .def_142 () Bool (and .def_85 .def_141))
(define-fun .def_143 () Bool (and .def_89 .def_142))
(define-fun .def_167 () Bool (and .def_143 .def_166))
(define-fun .def_169 () Bool (and .def_167 .def_168))
(define-fun .def_170 () Bool (and .def_95 .def_169))
(define-fun .def_132 () Bool (not .def_131))
(define-fun .def_171 () Bool (and .def_132 .def_170))
(define-fun .def_180 () Bool (and .def_171 .def_179))
(define-fun .def_183 () Bool (or .def_180 .def_182))
(define-fun .def_156 () Bool (= .def_36 57))
(define-fun .def_120 () Bool (= !pc.next 70))
(define-fun .def_160 () Bool (and .def_120 .def_156))
(define-fun .def_149 () Bool (= |!{$(in_main#0)<x>}.next| 0))
(define-fun .def_87 () Bool (= .def_10 |!{$(in_main#0)<i>}.next|))
(define-fun .def_98 () Bool (and .def_85 .def_87))
(define-fun .def_150 () Bool (and .def_98 .def_149))
(define-fun .def_151 () Bool (and .def_91 .def_150))
(define-fun .def_152 () Bool (and .def_93 .def_151))
(define-fun .def_153 () Bool (and .def_95 .def_152))
(define-fun .def_154 () Bool (and .def_131 .def_153))
(define-fun .def_161 () Bool (and .def_154 .def_160))
(define-fun .def_158 () Bool (and .def_156 .def_157))
(define-fun .def_134 () Int (select .def_16 .def_10))
(define-fun .def_135 () Int (* (- 1) .def_134))
(define-fun .def_133 () Int (select .def_14 .def_10))
(define-fun .def_136 () Int (+ .def_133 .def_135))
(define-fun .def_137 () (Array Int Int) (store .def_18 .def_10 .def_136))
(define-fun .def_146 () Bool (= |!{$(in_main#0)<c.3>}.next| .def_137))
(define-fun .def_144 () Bool (and .def_91 .def_143))
(define-fun .def_145 () Bool (and .def_93 .def_144))
(define-fun .def_147 () Bool (and .def_145 .def_146))
(define-fun .def_148 () Bool (and .def_132 .def_147))
(define-fun .def_159 () Bool (and .def_148 .def_158))
(define-fun .def_162 () Bool (or .def_159 .def_161))
(define-fun .def_124 () Bool (= !pc.next 0))
(define-fun .def_115 () Bool (= .def_36 70))
(define-fun .def_125 () Bool (and .def_115 .def_124))
(define-fun .def_67 () Bool (<= .def_8 .def_12))
(define-fun .def_108 () Bool (and .def_67 .def_85))
(define-fun .def_109 () Bool (and .def_87 .def_108))
(define-fun .def_110 () Bool (and .def_89 .def_109))
(define-fun .def_111 () Bool (and .def_91 .def_110))
(define-fun .def_112 () Bool (and .def_93 .def_111))
(define-fun .def_113 () Bool (and .def_95 .def_112))
(define-fun .def_126 () Bool (and .def_113 .def_125))
(define-fun .def_121 () Bool (and .def_115 .def_120))
(define-fun .def_99 () Int (* (- 1) |!{$(in_main#0)<x>}.next|))
(define-fun .def_100 () Int (+ .def_12 .def_99))
(define-fun .def_101 () Bool (= .def_100 (- 1)))
(define-fun .def_102 () Bool (and .def_98 .def_101))
(define-fun .def_103 () Bool (and .def_91 .def_102))
(define-fun .def_104 () Bool (and .def_93 .def_103))
(define-fun .def_105 () Bool (and .def_95 .def_104))
(define-fun .def_71 () Int (select .def_16 .def_12))
(define-fun .def_70 () Int (select .def_14 .def_12))
(define-fun .def_75 () Int (* (- 1) .def_70))
(define-fun .def_76 () Int (+ .def_75 .def_71))
(define-fun .def_69 () Int (select .def_18 .def_12))
(define-fun .def_77 () Int (+ .def_69 .def_76))
(define-fun .def_78 () Bool (= .def_77 0))
(define-fun .def_79 () Int (ite .def_78 1 0))
(define-fun .def_80 () Bool (= .def_79 0))
(define-fun .def_81 () Bool (not .def_80))
(define-fun .def_106 () Bool (and .def_81 .def_105))
(define-fun .def_68 () Bool (not .def_67))
(define-fun .def_107 () Bool (and .def_68 .def_106))
(define-fun .def_122 () Bool (and .def_107 .def_121))
(define-fun .def_117 () Bool (= !pc.next 90))
(define-fun .def_118 () Bool (and .def_115 .def_117))
(define-fun .def_86 () Bool (and .def_80 .def_85))
(define-fun .def_88 () Bool (and .def_86 .def_87))
(define-fun .def_90 () Bool (and .def_88 .def_89))
(define-fun .def_92 () Bool (and .def_90 .def_91))
(define-fun .def_94 () Bool (and .def_92 .def_93))
(define-fun .def_96 () Bool (and .def_94 .def_95))
(define-fun .def_97 () Bool (and .def_68 .def_96))
(define-fun .def_119 () Bool (and .def_97 .def_118))
(define-fun .def_123 () Bool (or .def_119 .def_122))
(define-fun .def_127 () Bool (or .def_123 .def_126))
(define-fun .def_65 () Bool (and .def_39 .def_64))
(define-fun .def_61 () Bool (= |!{$(in_main#0)<c.3>}.next| |%{$(in_main#0)<c.3>}#1|))
(define-fun .def_59 () Bool (= |!{$(in_main#0)<b.2>}.next| |%{$(in_main#0)<b.2>}#1|))
(define-fun .def_57 () Bool (= |!{$(in_main#0)<a.1>}.next| |%{$(in_main#0)<a.1>}#1|))
(define-fun .def_55 () Bool (= |!{$(in_main#0)<x>}.next| |%{$(in_main#0)<x>}#1|))
(define-fun .def_52 () Bool (= |!{$(in_main#0)<SIZE>}.next| |!{$(in_main#0)<$(in___VERIFIER_nondet_int#0)<h#<__VERIFIER_nondet_int.return>>>}|))
(define-fun .def_54 () Bool (and .def_52 .def_53))
(define-fun .def_56 () Bool (and .def_54 .def_55))
(define-fun .def_58 () Bool (and .def_56 .def_57))
(define-fun .def_60 () Bool (and .def_58 .def_59))
(define-fun .def_62 () Bool (and .def_60 .def_61))
(define-fun .def_66 () Bool (and .def_62 .def_65))
(define-fun .def_128 () Bool (or .def_66 .def_127))
(define-fun .def_163 () Bool (or .def_128 .def_162))
(define-fun .def_184 () Bool (! (or .def_163 .def_183) :trans true))
(define-fun .def_129 () Bool (= .def_36 90))
(define-fun .def_185 () Bool (! (not .def_129) :invar-property 0 :invar-property-name ||))
(assert true)
